logs/miss/max/miss-05-30-1.lp
\ LP format - for model browsing. Use MPS format to capture full model detail.
Maximize
  x0,1_7 + x0,1_26 + x0,1_29 + x0,1_48 + x0,1_55 + x0,2_7 + x0,2_26
   + x0,2_29 + x0,2_48 + x0,2_55 + x0,3_7 + x0,3_26 + x0,3_29 + x0,3_48
   + x0,3_55 + x0,4_7 + x0,4_26 + x0,4_29 + x0,4_48 + x0,4_55 + x1,2_7
   + x1,2_26 + x1,2_29 + x1,2_48 + x1,2_55 + x1,3_7 + x1,3_26 + x1,3_29
   + x1,3_48 + x1,3_55 + x1,4_7 + x1,4_26 + x1,4_29 + x1,4_48 + x1,4_55
   + x2,3_7 + x2,3_26 + x2,3_29 + x2,3_48 + x2,3_55 + x2,4_7 + x2,4_26
   + x2,4_29 + x2,4_48 + x2,4_55 + x3,4_7 + x3,4_26 + x3,4_29 + x3,4_48
   + x3,4_55
Subject To
 R0: x0,1_7 + x0,2_7 + x0,3_7 + x0,4_7 + x1,2_7 + x1,3_7 + x1,4_7 + x2,3_7
   + x2,4_7 + x3,4_7 <= 1
 R1: x0,1_26 + x0,2_26 + x0,3_26 + x0,4_26 + x1,2_26 + x1,3_26 + x1,4_26
   + x2,3_26 + x2,4_26 + x3,4_26 <= 1
 R2: x0,1_29 + x0,2_29 + x0,3_29 + x0,4_29 + x1,2_29 + x1,3_29 + x1,4_29
   + x2,3_29 + x2,4_29 + x3,4_29 <= 1
 R3: x0,1_48 + x0,2_48 + x0,3_48 + x0,4_48 + x1,2_48 + x1,3_48 + x1,4_48
   + x2,3_48 + x2,4_48 + x3,4_48 <= 1
 R4: x0,1_55 + x0,2_55 + x0,3_55 + x0,4_55 + x1,2_55 + x1,3_55 + x1,4_55
   + x2,3_55 + x2,4_55 + x3,4_55 <= 1
 R5: x0,1_7 + x0,1_26 + x0,1_29 + x0,1_48 + x0,1_55 <= 1
 R6: x0,2_7 + x0,2_26 + x0,2_29 + x0,2_48 + x0,2_55 <= 1
 R7: x0,3_7 + x0,3_26 + x0,3_29 + x0,3_48 + x0,3_55 <= 1
 R8: x0,4_7 + x0,4_26 + x0,4_29 + x0,4_48 + x0,4_55 <= 1
 R9: x1,2_7 + x1,2_26 + x1,2_29 + x1,2_48 + x1,2_55 <= 1
 R10: x1,3_7 + x1,3_26 + x1,3_29 + x1,3_48 + x1,3_55 <= 1
 R11: x1,4_7 + x1,4_26 + x1,4_29 + x1,4_48 + x1,4_55 <= 1
 R12: x2,3_7 + x2,3_26 + x2,3_29 + x2,3_48 + x2,3_55 <= 1
 R13: x2,4_7 + x2,4_26 + x2,4_29 + x2,4_48 + x2,4_55 <= 1
 R14: x3,4_7 + x3,4_26 + x3,4_29 + x3,4_48 + x3,4_55 <= 1
 R15: p0 - p1 <= -1
 R16: - 7 x0,1_7 - p0 + p1 >= 0
 R17: 165 x0,1_7 - p0 + p1 <= 172
 R18: - 26 x0,1_26 - p0 + p1 >= 0
 R19: 165 x0,1_26 - p0 + p1 <= 191
 R20: - 29 x0,1_29 - p0 + p1 >= 0
 R21: 165 x0,1_29 - p0 + p1 <= 194
 R22: - 48 x0,1_48 - p0 + p1 >= 0
 R23: 165 x0,1_48 - p0 + p1 <= 213
 R24: - 55 x0,1_55 - p0 + p1 >= 0
 R25: 165 x0,1_55 - p0 + p1 <= 220
 R26: p0 - p2 <= -1
 R27: - 7 x0,2_7 - p0 + p2 >= 0
 R28: 165 x0,2_7 - p0 + p2 <= 172
 R29: - 26 x0,2_26 - p0 + p2 >= 0
 R30: 165 x0,2_26 - p0 + p2 <= 191
 R31: - 29 x0,2_29 - p0 + p2 >= 0
 R32: 165 x0,2_29 - p0 + p2 <= 194
 R33: - 48 x0,2_48 - p0 + p2 >= 0
 R34: 165 x0,2_48 - p0 + p2 <= 213
 R35: - 55 x0,2_55 - p0 + p2 >= 0
 R36: 165 x0,2_55 - p0 + p2 <= 220
 R37: p0 - p3 <= -1
 R38: - 7 x0,3_7 - p0 + p3 >= 0
 R39: 165 x0,3_7 - p0 + p3 <= 172
 R40: - 26 x0,3_26 - p0 + p3 >= 0
 R41: 165 x0,3_26 - p0 + p3 <= 191
 R42: - 29 x0,3_29 - p0 + p3 >= 0
 R43: 165 x0,3_29 - p0 + p3 <= 194
 R44: - 48 x0,3_48 - p0 + p3 >= 0
 R45: 165 x0,3_48 - p0 + p3 <= 213
 R46: - 55 x0,3_55 - p0 + p3 >= 0
 R47: 165 x0,3_55 - p0 + p3 <= 220
 R48: p0 - p4 <= -1
 R49: - 7 x0,4_7 - p0 + p4 >= 0
 R50: 165 x0,4_7 - p0 + p4 <= 172
 R51: - 26 x0,4_26 - p0 + p4 >= 0
 R52: 165 x0,4_26 - p0 + p4 <= 191
 R53: - 29 x0,4_29 - p0 + p4 >= 0
 R54: 165 x0,4_29 - p0 + p4 <= 194
 R55: - 48 x0,4_48 - p0 + p4 >= 0
 R56: 165 x0,4_48 - p0 + p4 <= 213
 R57: - 55 x0,4_55 - p0 + p4 >= 0
 R58: 165 x0,4_55 - p0 + p4 <= 220
 R59: p1 - p2 <= -1
 R60: - 7 x1,2_7 - p1 + p2 >= 0
 R61: 165 x1,2_7 - p1 + p2 <= 172
 R62: - 26 x1,2_26 - p1 + p2 >= 0
 R63: 165 x1,2_26 - p1 + p2 <= 191
 R64: - 29 x1,2_29 - p1 + p2 >= 0
 R65: 165 x1,2_29 - p1 + p2 <= 194
 R66: - 48 x1,2_48 - p1 + p2 >= 0
 R67: 165 x1,2_48 - p1 + p2 <= 213
 R68: - 55 x1,2_55 - p1 + p2 >= 0
 R69: 165 x1,2_55 - p1 + p2 <= 220
 R70: p1 - p3 <= -1
 R71: - 7 x1,3_7 - p1 + p3 >= 0
 R72: 165 x1,3_7 - p1 + p3 <= 172
 R73: - 26 x1,3_26 - p1 + p3 >= 0
 R74: 165 x1,3_26 - p1 + p3 <= 191
 R75: - 29 x1,3_29 - p1 + p3 >= 0
 R76: 165 x1,3_29 - p1 + p3 <= 194
 R77: - 48 x1,3_48 - p1 + p3 >= 0
 R78: 165 x1,3_48 - p1 + p3 <= 213
 R79: - 55 x1,3_55 - p1 + p3 >= 0
 R80: 165 x1,3_55 - p1 + p3 <= 220
 R81: p1 - p4 <= -1
 R82: - 7 x1,4_7 - p1 + p4 >= 0
 R83: 165 x1,4_7 - p1 + p4 <= 172
 R84: - 26 x1,4_26 - p1 + p4 >= 0
 R85: 165 x1,4_26 - p1 + p4 <= 191
 R86: - 29 x1,4_29 - p1 + p4 >= 0
 R87: 165 x1,4_29 - p1 + p4 <= 194
 R88: - 48 x1,4_48 - p1 + p4 >= 0
 R89: 165 x1,4_48 - p1 + p4 <= 213
 R90: - 55 x1,4_55 - p1 + p4 >= 0
 R91: 165 x1,4_55 - p1 + p4 <= 220
 R92: p2 - p3 <= -1
 R93: - 7 x2,3_7 - p2 + p3 >= 0
 R94: 165 x2,3_7 - p2 + p3 <= 172
 R95: - 26 x2,3_26 - p2 + p3 >= 0
 R96: 165 x2,3_26 - p2 + p3 <= 191
 R97: - 29 x2,3_29 - p2 + p3 >= 0
 R98: 165 x2,3_29 - p2 + p3 <= 194
 R99: - 48 x2,3_48 - p2 + p3 >= 0
 R100: 165 x2,3_48 - p2 + p3 <= 213
 R101: - 55 x2,3_55 - p2 + p3 >= 0
 R102: 165 x2,3_55 - p2 + p3 <= 220
 R103: p2 - p4 <= -1
 R104: - 7 x2,4_7 - p2 + p4 >= 0
 R105: 165 x2,4_7 - p2 + p4 <= 172
 R106: - 26 x2,4_26 - p2 + p4 >= 0
 R107: 165 x2,4_26 - p2 + p4 <= 191
 R108: - 29 x2,4_29 - p2 + p4 >= 0
 R109: 165 x2,4_29 - p2 + p4 <= 194
 R110: - 48 x2,4_48 - p2 + p4 >= 0
 R111: 165 x2,4_48 - p2 + p4 <= 213
 R112: - 55 x2,4_55 - p2 + p4 >= 0
 R113: 165 x2,4_55 - p2 + p4 <= 220
 R114: p3 - p4 <= -1
 R115: - 7 x3,4_7 - p3 + p4 >= 0
 R116: 165 x3,4_7 - p3 + p4 <= 172
 R117: - 26 x3,4_26 - p3 + p4 >= 0
 R118: 165 x3,4_26 - p3 + p4 <= 191
 R119: - 29 x3,4_29 - p3 + p4 >= 0
 R120: 165 x3,4_29 - p3 + p4 <= 194
 R121: - 48 x3,4_48 - p3 + p4 >= 0
 R122: 165 x3,4_48 - p3 + p4 <= 213
 R123: - 55 x3,4_55 - p3 + p4 >= 0
 R124: 165 x3,4_55 - p3 + p4 <= 220
Bounds
Binaries
 x0,1_7 x0,1_26 x0,1_29 x0,1_48 x0,1_55 x0,2_7 x0,2_26 x0,2_29 x0,2_48
 x0,2_55 x0,3_7 x0,3_26 x0,3_29 x0,3_48 x0,3_55 x0,4_7 x0,4_26 x0,4_29
 x0,4_48 x0,4_55 x1,2_7 x1,2_26 x1,2_29 x1,2_48 x1,2_55 x1,3_7 x1,3_26
 x1,3_29 x1,3_48 x1,3_55 x1,4_7 x1,4_26 x1,4_29 x1,4_48 x1,4_55 x2,3_7
 x2,3_26 x2,3_29 x2,3_48 x2,3_55 x2,4_7 x2,4_26 x2,4_29 x2,4_48 x2,4_55
 x3,4_7 x3,4_26 x3,4_29 x3,4_48 x3,4_55
Generals
 p0 p1 p2 p3 p4
End
