logs/miss/max/miss-05-30-1.sol
# Objective value = 5
x0,1_7 1
x0,1_26 0
x0,1_29 0
x0,1_48 0
x0,1_55 0
x0,2_7 0
x0,2_26 0
x0,2_29 0
x0,2_48 0
x0,2_55 0
x0,3_7 0
x0,3_26 0
x0,3_29 0
x0,3_48 0
x0,3_55 0
x0,4_7 0
x0,4_26 0
x0,4_29 0
x0,4_48 0
x0,4_55 1
x1,2_7 0
x1,2_26 0
x1,2_29 0
x1,2_48 0
x1,2_55 0
x1,3_7 0
x1,3_26 1
x1,3_29 0
x1,3_48 0
x1,3_55 0
x1,4_7 0
x1,4_26 0
x1,4_29 0
x1,4_48 1
x1,4_55 0
x2,3_7 0
x2,3_26 0
x2,3_29 0
x2,3_48 0
x2,3_55 0
x2,4_7 0
x2,4_26 0
x2,4_29 1
x2,4_48 0
x2,4_55 0
x3,4_7 0
x3,4_26 0
x3,4_29 0
x3,4_48 0
x3,4_55 0
p0 0
p1 7
p2 26
p3 33
p4 55
